generation,value,overweight
1,10139,3996
2,5540,3287
3,6551,1344
4,3811,227
5,4872,0
6,5262,0
7,7384,36
8,7344,0
9,7620,0
10,7640,0
11,8373,0
12,8373,0
13,8373,0
14,8373,0
15,8373,0
16,8373,0
17,8373,0
18,8373,0
19,8373,0
20,8373,0
21,8373,0
22,8373,0
23,8373,0
24,8373,0
25,8373,0
26,8373,0
27,8373,0
28,8373,0
29,8373,0
30,8373,0
31,8373,0
32,8373,0
33,8373,0
34,8373,0
35,8482,6
36,8482,6
37,8482,6
38,8482,6
39,8482,6
40,8482,6
41,8482,6
42,8482,6
43,8482,6
44,8482,6
45,8482,6
46,8482,6
47,8482,6
48,8482,6
49,8482,6
50,8482,6
